size_x = 50;
size_y = 40;

given = [|
1, 4, 3|
1, 21, 2|
1, 22, 6|
1, 33, 6|
1, 35, 3|
2, 4, 4|
2, 5, 2|
2, 38, 6|
3, 20, 2|
3, 37, 14|
3, 40, 3|
4, 3, 3|
4, 21, 6|
5, 3, 3|
6, 8, 65|
6, 15, 30|
6, 40, 5|
7, 3, 3|
7, 20, 4|
7, 27, 90|
8, 4, 6|
8, 11, 3|
8, 16, 14|
8, 20, 4|
8, 21, 2|
8, 28, 6|
8, 29, 2|
8, 32, 12|
9, 4, 6|
9, 13, 12|
9, 15, 4|
9, 17, 14|
9, 25, 2|
9, 30, 5|
9, 40, 14|
10, 5, 3|
10, 22, 12|
10, 23, 2|
10, 25, 11|
10, 36, 3|
10, 38, 2|
10, 39, 8|
11, 11, 3|
11, 13, 6|
11, 18, 26|
11, 30, 13|
11, 36, 2|
12, 5, 4|
12, 15, 4|
12, 39, 3|
13, 11, 4|
13, 20, 3|
14, 3, 5|
14, 10, 11|
14, 18, 2|
15, 12, 54|
17, 22, 3|
18, 20, 2|
19, 17, 75|
19, 19, 6|
19, 21, 2|
19, 22, 2|
19, 39, 8|
21, 1, 44|
21, 3, 6|
21, 21, 2|
21, 22, 2|
22, 37, 208|
23, 13, 2|
23, 14, 2|
23, 15, 2|
23, 18, 6|
24, 1, 2|
24, 3, 30|
24, 13, 2|
24, 22, 3|
25, 12, 7|
25, 28, 12|
25, 34, 4|
25, 38, 8|
26, 1, 2|
26, 3, 2|
26, 13, 13|
26, 18, 2|
26, 24, 12|
26, 26, 16|
27, 18, 2|
27, 37, 2|
27, 40, 10|
28, 7, 22|
28, 12, 30|
28, 20, 39|
28, 26, 2|
28, 33, 6|
28, 35, 2|
28, 39, 9|
29, 7, 8|
29, 25, 3|
29, 28, 4|
30, 9, 3|
30, 10, 2|
30, 22, 2|
30, 25, 5|
30, 36, 7|
31, 3, 12|
31, 4, 3|
31, 5, 2|
31, 6, 2|
31, 11, 5|
31, 28, 3|
31, 39, 7|
32, 9, 5|
32, 12, 5|
32, 17, 3|
32, 18, 4|
32, 24, 12|
33, 22, 7|
33, 29, 4|
33, 38, 16|
33, 40, 3|
34, 2, 54|
34, 25, 7|
35, 20, 2|
35, 28, 2|
35, 36, 2|
36, 17, 4|
37, 16, 4|
37, 17, 3|
37, 27, 2|
37, 28, 5|
37, 40, 2|
38, 15, 2|
38, 17, 2|
38, 29, 7|
38, 32, 66|
39, 16, 2|
39, 36, 24|
40, 27, 5|
40, 30, 3|
40, 35, 3|
41, 9, 196|
41, 18, 5|
41, 20, 8|
41, 28, 3|
41, 35, 21|
42, 17, 7|
43, 18, 3|
43, 22, 60|
44, 27, 4|
44, 32, 9|
44, 37, 2|
44, 39, 22|
45, 16, 5|
45, 19, 8|
45, 21, 8|
45, 26, 4|
45, 31, 6|
45, 33, 2|
45, 36, 3|
46, 15, 10|
46, 17, 2|
46, 19, 2|
46, 24, 2|
46, 28, 2|
46, 29, 2|
46, 33, 2|
46, 35, 2|
46, 38, 3|
48, 29, 92|
50, 15, 15|
50, 40, 4|];
